Figure: small_5
File Number: 21
Nodes: 36
Edges: 580
Max Generations: 1000
Population Size: 100
Mutation Rate: 0.01
Colors Used: 8
Runtime: 1.07

Generation,Average Fitness,Best Fitness
0,83.98,62
1,78.32,56
2,74.02,44
3,72.78,44
4,71.26,44
5,67.28,42
6,65.48,42
7,63.46,42
8,62.98,42
9,61.54,42
10,59.16,42
11,57.96,40
12,57.34,34
13,55.14,34
14,54.14,34
15,51.5,34
16,51.0,34
17,49.72,30
18,47.84,30
19,46.4,30
20,43.28,30
21,40.62,30
22,39.68,30
23,38.76,30
24,37.32,28
25,36.0,26
26,34.68,26
27,33.64,24
28,32.3,24
29,31.32,24
30,30.54,20
31,29.82,20
32,29.7,20
33,27.72,16
34,26.88,16
35,25.34,16
36,24.68,16
37,23.96,14
38,22.3,14
39,21.28,14
40,19.82,12
41,18.7,12
42,17.96,12
43,17.2,10
44,16.4,10
45,15.64,10
46,15.12,10
47,14.28,10
48,13.62,10
49,12.68,10
50,12.94,8
51,12.28,8
52,12.34,8
53,12.36,8
54,12.2,8
55,11.76,8
56,11.14,8
57,11.08,8
58,10.86,8
59,10.4,8
60,11.06,8
61,10.7,8
62,10.68,8
63,10.94,8
64,10.48,8
65,10.68,8
66,10.36,8
67,10.12,8
68,9.82,8
69,9.82,8
70,10.12,8
71,10.02,8
72,10.34,8
73,10.4,8
74,10.14,8
75,9.82,8
76,10.3,8
77,10.5,8
78,10.24,8
79,9.98,8
80,9.6,8
81,9.8,8
82,10.06,8
83,9.88,8
84,9.32,8
85,9.62,8
86,9.74,8
87,9.9,8
88,9.64,8
89,9.82,8
90,10.28,8
91,9.76,8
92,9.94,8
93,10.46,8
94,10.48,8
95,10.4,8
96,10.88,8
97,9.8,8
98,9.64,8
99,9.38,8
100,10.08,8
101,9.64,8
102,9.88,8
103,9.44,8
104,9.18,8
105,9.84,8
106,9.92,8
107,9.78,8
108,9.74,8
109,9.28,8
110,9.54,8
111,9.56,8
112,9.08,8
113,9.82,8
114,9.82,8
115,10.1,8
116,10.16,8
117,9.98,8
118,9.68,8
119,9.66,8
120,9.88,8
121,10.1,8
122,10.18,8
123,9.72,8
124,10.66,8
125,10.66,8
126,9.92,8
127,10.28,8
128,10.62,8
129,10.56,8
130,10.42,8
131,10.34,8
132,10.32,8
133,10.66,8
134,10.16,8
135,10.5,8
136,10.28,8
137,10.38,8
138,9.94,8
139,10.02,8
140,10.24,8
141,10.94,8
142,10.34,8
143,10.78,8
144,11.12,8
145,10.7,8
146,10.42,8
147,9.82,8
148,10.56,8
149,10.76,8
150,10.4,8
151,10.38,8
152,9.84,8
153,10.28,8
154,10.8,8
155,10.58,8
156,10.06,8
157,10.02,8
158,9.58,8
159,10.42,8
160,10.38,8
161,10.06,8
162,9.82,8
163,10.1,8
164,10.5,8
165,9.88,8
166,9.96,8
167,10.1,8
168,10.3,8
169,9.7,8
170,9.88,8
171,9.8,8
172,10.08,8
173,9.92,8
174,10.12,8
175,9.68,8
176,10.32,8
177,10.5,8
178,10.26,8
179,9.98,8
180,9.7,8
181,10.18,8
182,10.1,8
183,10.48,8
184,9.96,8
185,9.88,8
186,10.38,8
187,10.42,8
188,9.86,8
189,9.94,8
190,10.12,8
191,9.74,8
192,9.98,8
193,10.54,8
194,10.52,8
195,10.24,8
196,9.86,8
197,10.48,8
198,10.02,8
199,9.8,8
200,9.86,8
201,9.84,8
202,9.94,8
203,10.06,8
204,9.94,8
205,9.76,8
206,10.34,8
207,9.62,8
208,9.6,8
209,9.7,8
210,9.58,8
211,9.54,8
212,9.7,8
213,9.78,8
214,9.94,8
215,9.94,8
216,9.9,8
217,9.94,8
218,9.92,8
219,10.02,8
220,10.22,8
221,10.22,8
222,10.24,8
223,9.9,8
224,9.92,8
225,9.68,8
226,9.82,8
227,9.36,8
228,10.1,8
229,9.88,8
230,10.26,8
231,10.34,8
232,10.52,8
233,10.58,8
234,10.0,8
235,9.22,8
236,9.46,8
237,9.54,8
238,9.94,8
239,10.32,8
240,10.92,8
241,10.72,8
242,10.4,8
243,11.14,8
244,10.6,8
245,9.92,8
246,9.7,8
247,9.62,8
248,9.74,8
249,9.36,8
250,9.64,8
251,10.04,8
252,10.04,8
253,10.72,8
254,10.56,8
255,10.56,8
256,10.16,8
257,9.96,8
258,9.74,8
259,9.6,8
260,9.72,8
261,10.28,8
262,10.9,8
263,10.2,8
264,9.9,8
265,9.7,8
266,9.34,8
267,9.2,8
268,9.56,8
269,9.1,8
270,10.02,8
271,10.26,8
272,10.76,8
273,10.5,8
274,10.38,8
275,10.68,8
276,10.42,8
277,10.44,8
278,10.16,8
279,9.68,8
280,9.78,8
281,10.24,8
282,9.96,8
283,9.76,8
284,9.98,8
285,10.06,8
286,9.38,8
287,9.68,8
288,10.06,8
289,9.38,8
290,9.64,8
291,9.76,8
292,9.88,8
293,10.06,8
294,9.68,8
295,9.76,8
296,9.78,8
297,9.34,8
298,9.26,8
299,9.38,8
300,9.84,8
301,10.0,8
302,10.0,8
303,10.16,8
304,9.96,8
305,9.44,8
306,9.56,8
307,10.14,8
308,10.14,8
309,10.44,8
310,9.88,8
311,10.34,8
312,9.86,8
313,9.18,8
314,9.64,8
315,9.3,8
316,9.72,8
317,9.54,8
318,10.32,8
319,10.68,8
320,10.36,8
321,9.92,8
322,9.98,8
323,9.36,8
324,9.58,8
325,9.7,8
326,10.06,8
327,10.4,8
328,10.12,8
329,10.2,8
330,9.8,8
331,10.04,8
332,9.82,8
333,10.62,8
334,10.4,8
335,10.3,8
336,10.12,8
337,10.18,8
338,9.7,8
339,9.74,8
340,10.12,8
341,10.02,8
342,10.76,8
343,10.2,8
344,10.36,8
345,10.0,8
346,9.52,8
347,9.58,8
348,10.0,8
349,9.84,8
350,9.56,8
351,10.22,8
352,9.98,8
353,9.92,8
354,10.44,8
355,9.44,8
356,9.6,8
357,9.68,8
358,9.62,8
359,9.54,8
360,9.76,8
361,9.78,8
362,10.16,8
363,10.16,8
364,9.72,8
365,10.28,8
366,9.86,8
367,10.48,8
368,10.94,8
369,9.94,8
370,10.06,8
371,9.64,8
372,10.18,8
373,10.56,8
374,10.78,8
375,9.98,8
376,9.88,8
377,9.52,8
378,8.96,8
379,9.5,8
380,9.76,8
381,9.64,8
382,9.72,8
383,9.98,8
384,10.48,8
385,10.62,8
386,9.94,8
387,9.98,8
388,10.04,8
389,10.52,8
390,10.0,8
391,9.72,8
392,10.04,8
393,10.28,8
394,10.04,8
395,10.54,8
396,10.78,8
397,10.0,8
398,9.76,8
399,9.78,8
400,9.98,8
401,10.36,8
402,9.98,8
403,9.12,8
404,10.38,8
405,10.2,8
406,10.6,8
407,10.68,8
408,9.9,8
409,10.18,8
410,9.9,8
411,9.42,8
412,9.66,8
413,9.76,8
414,10.54,8
415,10.22,8
416,10.22,8
417,9.66,8
418,10.22,8
419,10.18,8
420,10.28,8
421,9.54,8
422,9.36,8
423,9.88,8
424,10.0,8
425,9.52,8
426,9.16,8
427,8.78,8
428,9.16,8
429,9.5,8
430,9.92,8
431,10.36,8
432,10.24,8
433,10.9,8
434,10.68,8
435,10.0,8
436,10.02,8
437,10.08,8
438,10.2,8
439,10.22,8
440,10.0,8
441,9.76,8
442,9.88,8
443,10.04,8
444,9.48,8
445,10.0,8
446,9.68,8
447,9.76,8
448,9.88,8
449,10.08,8
450,10.4,8
451,9.54,8
452,9.82,8
453,9.86,8
454,10.0,8
455,9.76,8
456,9.78,8
457,9.66,8
458,10.04,8
459,9.56,8
460,10.1,8
461,10.44,8
462,10.98,8
463,10.58,8
464,9.9,8
465,10.06,8
466,10.0,8
467,10.1,8
468,10.5,8
469,9.64,8
470,9.78,8
471,9.64,8
472,9.68,8
473,9.82,8
474,9.56,8
475,10.24,8
476,10.24,8
477,10.38,8
478,10.52,8
479,10.62,8
480,10.68,8
481,10.02,8
482,10.08,8
483,10.88,8
484,10.32,8
485,10.24,8
486,10.32,8
487,9.68,8
488,10.06,8
489,10.12,8
490,10.1,8
491,9.58,8
492,9.72,8
493,9.56,8
494,9.56,8
495,9.28,8
496,10.04,8
497,9.8,8
498,9.76,8
499,9.9,8
500,9.44,8
501,9.4,8
502,9.4,8
503,9.62,8
504,10.16,8
505,9.66,8
506,8.96,8
507,9.66,8
508,9.8,8
509,9.78,8
510,10.18,8
511,9.76,8
512,10.24,8
513,9.9,8
514,9.64,8
515,10.12,8
516,9.7,8
517,9.54,8
518,9.18,8
519,9.52,8
520,10.0,8
521,10.08,8
522,9.98,8
523,9.72,8
524,9.66,8
525,9.68,8
526,9.98,8
527,10.02,8
528,9.88,8
529,9.58,8
530,9.82,8
531,10.22,8
532,10.12,8
533,10.6,8
534,9.62,8
535,10.0,8
536,9.86,8
537,9.68,8
538,9.5,8
539,9.6,8
540,9.98,8
541,10.26,8
542,10.0,8
543,10.16,8
544,9.84,8
545,9.78,8
546,10.0,8
547,9.8,8
548,10.66,8
549,10.58,8
550,10.24,8
551,10.2,8
552,9.8,8
553,10.3,8
554,10.3,8
555,10.5,8
556,9.86,8
557,9.76,8
558,9.5,8
559,9.76,8
560,9.8,8
561,9.62,8
562,10.36,8
563,9.5,8
564,9.4,8
565,9.88,8
566,9.84,8
567,9.68,8
568,10.1,8
569,10.02,8
570,9.98,8
571,10.24,8
572,10.22,8
573,10.46,8
574,10.16,8
575,10.5,8
576,9.76,8
577,9.42,8
578,10.04,8
579,10.02,8
580,10.2,8
581,9.82,8
582,10.26,8
583,10.16,8
584,10.24,8
585,10.06,8
586,9.82,8
587,9.18,8
588,9.8,8
589,10.26,8
590,10.02,8
591,10.4,8
592,10.64,8
593,10.6,8
594,10.0,8
595,9.52,8
596,9.54,8
597,10.2,8
598,10.06,8
599,10.16,8
600,9.9,8
601,9.82,8
602,9.86,8
603,9.74,8
604,9.84,8
605,9.48,8
606,10.54,8
607,9.64,8
608,9.78,8
609,10.52,8
610,9.76,8
611,9.84,8
612,10.1,8
613,10.28,8
614,10.06,8
615,9.66,8
616,9.8,8
617,9.64,8
618,9.7,8
619,10.4,8
620,10.66,8
621,10.76,8
622,10.42,8
623,9.66,8
624,9.78,8
625,9.42,8
626,9.98,8
627,9.98,8
628,10.04,8
629,9.58,8
630,9.54,8
631,9.76,8
632,10.12,8
633,9.92,8
634,10.3,8
635,10.06,8
636,10.22,8
637,10.28,8
638,10.14,8
639,10.34,8
640,9.74,8
641,10.12,8
642,10.0,8
643,10.04,8
644,9.76,8
645,10.18,8
646,10.44,8
647,10.38,8
648,9.92,8
649,9.74,8
650,9.92,8
651,9.08,8
652,9.52,8
653,9.86,8
654,10.52,8
655,10.06,8
656,10.34,8
657,10.02,8
658,9.62,8
659,9.74,8
660,9.68,8
661,9.64,8
662,9.36,8
663,9.46,8
664,9.46,8
665,10.32,8
666,10.32,8
667,10.12,8
668,9.98,8
669,9.38,8
670,9.6,8
671,9.38,8
672,9.42,8
673,9.92,8
674,9.9,8
675,9.82,8
676,9.46,8
677,9.52,8
678,9.44,8
679,9.72,8
680,9.38,8
681,9.86,8
682,10.24,8
683,10.46,8
684,10.32,8
685,9.84,8
686,10.1,8
687,10.68,8
688,9.92,8
689,9.66,8
690,9.62,8
691,9.78,8
692,10.12,8
693,10.96,8
694,10.84,8
695,10.42,8
696,10.04,8
697,9.82,8
698,9.38,8
699,9.84,8
700,9.4,8
701,9.54,8
702,10.36,8
703,9.74,8
704,9.78,8
705,9.7,8
706,9.74,8
707,9.42,8
708,10.34,8
709,10.0,8
710,10.38,8
711,10.34,8
712,9.7,8
713,10.46,8
714,9.78,8
715,10.2,8
716,10.1,8
717,9.92,8
718,9.78,8
719,10.28,8
720,10.18,8
721,10.5,8
722,9.62,8
723,10.32,8
724,10.28,8
725,10.1,8
726,10.16,8
727,10.46,8
728,9.72,8
729,9.8,8
730,10.1,8
731,9.96,8
732,9.66,8
733,9.6,8
734,9.84,8
735,9.48,8
736,9.72,8
737,9.68,8
738,10.12,8
739,9.92,8
740,10.02,8
741,9.82,8
742,9.84,8
743,9.72,8
744,9.96,8
745,9.92,8
746,9.88,8
747,9.88,8
748,10.04,8
749,10.12,8
750,10.22,8
751,10.78,8
752,10.3,8
753,10.7,8
754,10.32,8
755,9.98,8
756,10.14,8
757,10.3,8
758,9.9,8
759,10.24,8
760,10.0,8
761,9.52,8
762,9.8,8
763,9.9,8
764,10.46,8
765,10.46,8
766,10.3,8
767,9.84,8
768,9.22,8
769,9.66,8
770,9.68,8
771,10.44,8
772,10.1,8
773,9.66,8
774,9.24,8
775,10.08,8
776,9.48,8
777,9.8,8
778,10.04,8
779,9.84,8
780,10.12,8
781,10.0,8
782,9.92,8
783,9.8,8
784,9.92,8
785,9.96,8
786,9.86,8
787,10.22,8
788,9.78,8
789,9.78,8
790,10.2,8
791,9.92,8
792,9.54,8
793,9.72,8
794,9.42,8
795,9.84,8
796,9.54,8
797,9.58,8
798,9.5,8
799,9.84,8
800,10.32,8
801,10.16,8
802,10.52,8
803,10.0,8
804,9.92,8
805,9.84,8
806,9.98,8
807,9.94,8
808,10.28,8
809,10.56,8
810,10.46,8
811,9.9,8
812,10.16,8
813,10.72,8
814,10.12,8
815,9.9,8
816,10.48,8
817,11.02,8
818,10.3,8
819,9.72,8
820,9.9,8
821,9.84,8
822,9.74,8
823,9.92,8
824,9.66,8
825,10.04,8
826,10.62,8
827,9.98,8
828,10.08,8
829,9.86,8
830,9.9,8
831,10.34,8
832,10.26,8
833,10.02,8
834,9.76,8
835,9.78,8
836,9.4,8
837,9.52,8
838,9.94,8
839,9.26,8
840,9.96,8
841,10.26,8
842,9.82,8
843,9.74,8
844,9.88,8
845,10.68,8
846,9.9,8
847,10.4,8
848,9.92,8
849,10.16,8
850,9.9,8
851,9.92,8
852,10.08,8
853,9.72,8
854,9.7,8
855,9.32,8
856,9.9,8
857,10.44,8
858,10.02,8
859,10.28,8
860,9.92,8
861,9.96,8
862,10.1,8
863,10.28,8
864,10.14,8
865,10.66,8
866,10.0,8
867,9.88,8
868,9.14,8
869,9.38,8
870,9.6,8
871,9.78,8
872,9.62,8
873,9.94,8
874,9.7,8
875,9.38,8
876,9.94,8
877,9.88,8
878,9.42,8
879,10.38,8
880,9.86,8
881,10.38,8
882,10.22,8
883,10.12,8
884,9.86,8
885,9.88,8
886,10.26,8
887,9.76,8
888,9.92,8
889,10.2,8
890,10.04,8
891,9.94,8
892,9.62,8
893,9.76,8
894,10.34,8
895,10.08,8
896,10.32,8
897,9.74,8
898,9.94,8
899,9.96,8
900,10.78,8
901,10.08,8
902,10.76,8
903,10.06,8
904,9.64,8
905,9.56,8
906,9.1,8
907,10.18,8
908,9.74,8
909,10.08,8
910,9.92,8
911,10.22,8
912,9.78,8
913,9.9,8
914,10.0,8
915,10.36,8
916,9.68,8
917,10.06,8
918,10.54,8
919,10.24,8
920,10.1,8
921,9.64,8
922,9.78,8
923,9.98,8
924,10.18,8
925,9.72,8
926,9.82,8
927,9.94,8
928,9.68,8
929,10.0,8
930,9.98,8
931,9.64,8
932,9.82,8
933,10.36,8
934,10.48,8
935,10.24,8
936,10.22,8
937,10.16,8
938,9.88,8
939,9.84,8
940,9.78,8
941,10.46,8
942,10.3,8
943,10.52,8
944,10.24,8
945,10.0,8
946,10.24,8
947,10.04,8
948,10.08,8
949,9.94,8
950,9.92,8
951,9.5,8
952,9.46,8
953,9.76,8
954,9.58,8
955,9.82,8
956,10.08,8
957,10.02,8
958,9.94,8
959,9.66,8
960,9.76,8
961,9.96,8
962,10.32,8
963,10.62,8
964,10.36,8
965,9.82,8
966,10.14,8
967,9.96,8
968,10.22,8
969,10.4,8
970,9.86,8
971,9.98,8
972,10.0,8
973,9.86,8
974,10.16,8
975,10.34,8
976,10.08,8
977,9.84,8
978,10.1,8
979,10.2,8
980,10.44,8
981,9.94,8
982,9.96,8
983,9.9,8
984,10.14,8
985,10.4,8
986,9.94,8
987,10.2,8
988,10.56,8
989,10.64,8
990,10.52,8
991,10.72,8
992,10.08,8
993,10.18,8
994,9.94,8
995,9.78,8
996,10.08,8
997,10.1,8
998,10.1,8
999,10.52,8
